120
1000
200
200
200
199
198
197
197
196
195
195
195
195
194
194
193
193
193
193
193
192
192
192
190
190
189
189
188
186
185
185
184
184
184
183
183
182
181
181
180
179
178
178
178
177
176
175
175
175
175
174
174
174
174
174
173
173
173
173
173
172
172
172
172
172
171
171
170
170
169
167
167
167
167
166
166
166
166
166
165
165
164
164
164
164
164
163
163
163
163
163
162
162
162
162
162
161
160
160
160
158
158
158
158
158
157
157
156
156
156
156
155
153
152
152
152
152
152
151
151
151
